NAME: tsp20-17
TYPE: TSP
DIMENSION: 20
EDGE_WEIGHT_TYPE: EUC_2D
NODE_COORD_SECTION
0 36 23
1 76 72
2 74 28
3 34 78
4 0 10
5 33 71
6 96 19
7 51 31
8 11 48
9 5 0
10 92 8
11 89 12
12 65 38
13 3 74
14 67 88
15 100 19
16 80 58
17 11 59
18 29 89
19 7 9
EOF